
Gurobi 11.0.0 (linux64) logging started Sun Mar 10 21:28:09 2024

Set parameter LogFile to value "gurobi_out/log/Mar_10_fir_6_2.log"
Gurobi Optimizer version 11.0.0 build v11.0.0rc2 (linux64 - "CentOS Linux 7 (Core)")

CPU model: Intel Xeon E3-12xx v2 (Ivy Bridge), instruction set [SSE2|AVX]
Thread count: 24 physical cores, 24 logical processors, using up to 24 threads

Optimize a model with 354 rows, 354 columns and 881 nonzeros
Model fingerprint: 0xbb65460d
Variable types: 254 continuous, 100 integer (50 binary)
Coefficient statistics:
  Matrix range     [1e+00, 1e+02]
  Objective range  [1e-05, 1e+00]
  Bounds range     [1e+00, 1e+00]
  RHS range        [1e+00, 4e+00]
Presolve removed 15 rows and 41 columns
Presolve time: 0.00s

Explored 0 nodes (0 simplex iterations) in 0.00 seconds (0.00 work units)
Thread count was 1 (of 24 available processors)

Solution count 0
No other solutions better than -1e+100

Model is infeasible
Best objective -, best bound -, gap -
Warning: linear constraint 103 and linear constraint 104 have the same name "PathConstr3_nopl"
